robust/generate/spp_dkp_Lefebvre_et_al_2026/src/shortest_path_6_4.kp
46
113

[3.69 2.99 1.17 3.57 1.47 4.41 0.2 2.08 4.3 2.14 2.39 0.4 2.01 3.51 4.08 1.52 0.49 3.78 1.86 2.96 0.17 1.41 0.22 1.75]

[14 72 54 85 84 58 77 22 82 96 48 75 83 12 6 90 15 61 12 57 42 65 1 37]
