robust/generate/spp_dkp_Lefebvre_et_al_2026/src/shortest_path_6_4.lp
\ Model sp_6_4
\ LP format - for model browsing. Use MPS format to capture full model detail.
\ Signature: 0x1a3fed327f855427
Minimize
  24.33 y[0,1] + 69.57 y[0,2] + 73.55 y[0,3] + 25.08 y[0,4] + 75.43 y[0,5]
   + 24.33 y[1,0] + 76.53 y[1,3] + 14.04 y[1,4] + 69.57 y[2,0]
   + 37.48 y[2,3] + 71.84 y[2,4] + 25.96 y[2,5] + 73.55 y[3,0]
   + 76.53 y[3,1] + 37.48 y[3,2] + 62.51 y[3,4] + 63.35 y[3,5]
   + 25.08 y[4,0] + 14.04 y[4,1] + 71.84 y[4,2] + 62.51 y[4,3]
   + 75.43 y[5,0] + 25.96 y[5,2] + 63.35 y[5,3] + 2.433 r[0,1]
   + 6.957 r[0,2] + 7.355 r[0,3] + 2.508 r[0,4] + 7.543 r[0,5]
   + 2.433 r[1,0] + 7.653 r[1,3] + 1.404 r[1,4] + 6.957 r[2,0]
   + 3.748 r[2,3] + 7.184 r[2,4] + 2.596 r[2,5] + 7.355 r[3,0]
   + 7.653 r[3,1] + 3.748 r[3,2] + 6.251 r[3,4] + 6.335 r[3,5]
   + 2.508 r[4,0] + 1.404 r[4,1] + 7.184 r[4,2] + 6.251 r[4,3]
   + 7.543 r[5,0] + 2.596 r[5,2] + 6.335 r[5,3]
Subject To
 flow_cons_inner_nodes[0]: - y[0,1] - y[0,2] - y[0,3] - y[0,4] - y[0,5]
   + y[1,0] + y[2,0] + y[3,0] + y[4,0] + y[5,0] = 0
 flow_cons_inner_nodes[2]: y[0,2] - y[2,0] - y[2,3] - y[2,4] - y[2,5]
   + y[3,2] + y[4,2] + y[5,2] = 0
 flow_cons_inner_nodes[3]: y[0,3] + y[1,3] + y[2,3] - y[3,0] - y[3,1]
   - y[3,2] - y[3,4] - y[3,5] + y[4,3] + y[5,3] = 0
 flow_cons_inner_nodes[4]: y[0,4] + y[1,4] + y[2,4] + y[3,4] - y[4,0]
   - y[4,1] - y[4,2] - y[4,3] = 0
 flow_cons_source: - y[0,1] + y[1,0] + y[1,3] + y[1,4] - y[3,1] - y[4,1]
   = 1
 flow_cons_target: y[0,5] + y[2,5] + y[3,5] - y[5,0] - y[5,2] - y[5,3] = 1
 primal_lower: - 3.69 y[0,1] - 2.99 y[0,2] - 1.17 y[0,3] - 3.57 y[0,4]
   - 1.47 y[0,5] - 4.41 y[1,0] - 0.2 y[1,3] - 2.08 y[1,4] - 4.3 y[2,0]
   - 2.14 y[2,3] - 2.39 y[2,4] - 0.4 y[2,5] - 2.01 y[3,0] - 3.51 y[3,1]
   - 4.08 y[3,2] - 1.52 y[3,4] - 0.49 y[3,5] - 3.78 y[4,0] - 1.86 y[4,1]
   - 2.96 y[4,2] - 0.17 y[4,3] - 1.41 y[5,0] - 0.22 y[5,2] - 1.75 y[5,3]
   + 14 u[0,1] + 72 u[0,2] + 54 u[0,3] + 85 u[0,4] + 84 u[0,5] + 58 u[1,0]
   + 77 u[1,3] + 22 u[1,4] + 82 u[2,0] + 96 u[2,3] + 48 u[2,4] + 75 u[2,5]
   + 83 u[3,0] + 12 u[3,1] + 6 u[3,2] + 90 u[3,4] + 15 u[3,5] + 61 u[4,0]
   + 12 u[4,1] + 57 u[4,2] + 42 u[4,3] + 65 u[5,0] + u[5,2] + 37 u[5,3]
   <= 113
 mccormick1[0,1]: - u[0,1] + r[0,1] <= 0
 mccormick1[0,2]: - u[0,2] + r[0,2] <= 0
 mccormick1[0,3]: - u[0,3] + r[0,3] <= 0
 mccormick1[0,4]: - u[0,4] + r[0,4] <= 0
 mccormick1[0,5]: - u[0,5] + r[0,5] <= 0
 mccormick1[1,0]: - u[1,0] + r[1,0] <= 0
 mccormick1[1,3]: - u[1,3] + r[1,3] <= 0
 mccormick1[1,4]: - u[1,4] + r[1,4] <= 0
 mccormick1[2,0]: - u[2,0] + r[2,0] <= 0
 mccormick1[2,3]: - u[2,3] + r[2,3] <= 0
 mccormick1[2,4]: - u[2,4] + r[2,4] <= 0
 mccormick1[2,5]: - u[2,5] + r[2,5] <= 0
 mccormick1[3,0]: - u[3,0] + r[3,0] <= 0
 mccormick1[3,1]: - u[3,1] + r[3,1] <= 0
 mccormick1[3,2]: - u[3,2] + r[3,2] <= 0
 mccormick1[3,4]: - u[3,4] + r[3,4] <= 0
 mccormick1[3,5]: - u[3,5] + r[3,5] <= 0
 mccormick1[4,0]: - u[4,0] + r[4,0] <= 0
 mccormick1[4,1]: - u[4,1] + r[4,1] <= 0
 mccormick1[4,2]: - u[4,2] + r[4,2] <= 0
 mccormick1[4,3]: - u[4,3] + r[4,3] <= 0
 mccormick1[5,0]: - u[5,0] + r[5,0] <= 0
 mccormick1[5,2]: - u[5,2] + r[5,2] <= 0
 mccormick1[5,3]: - u[5,3] + r[5,3] <= 0
 mccormick2[0,1]: - y[0,1] + r[0,1] <= 0
 mccormick2[0,2]: - y[0,2] + r[0,2] <= 0
 mccormick2[0,3]: - y[0,3] + r[0,3] <= 0
 mccormick2[0,4]: - y[0,4] + r[0,4] <= 0
 mccormick2[0,5]: - y[0,5] + r[0,5] <= 0
 mccormick2[1,0]: - y[1,0] + r[1,0] <= 0
 mccormick2[1,3]: - y[1,3] + r[1,3] <= 0
 mccormick2[1,4]: - y[1,4] + r[1,4] <= 0
 mccormick2[2,0]: - y[2,0] + r[2,0] <= 0
 mccormick2[2,3]: - y[2,3] + r[2,3] <= 0
 mccormick2[2,4]: - y[2,4] + r[2,4] <= 0
 mccormick2[2,5]: - y[2,5] + r[2,5] <= 0
 mccormick2[3,0]: - y[3,0] + r[3,0] <= 0
 mccormick2[3,1]: - y[3,1] + r[3,1] <= 0
 mccormick2[3,2]: - y[3,2] + r[3,2] <= 0
 mccormick2[3,4]: - y[3,4] + r[3,4] <= 0
 mccormick2[3,5]: - y[3,5] + r[3,5] <= 0
 mccormick2[4,0]: - y[4,0] + r[4,0] <= 0
 mccormick2[4,1]: - y[4,1] + r[4,1] <= 0
 mccormick2[4,2]: - y[4,2] + r[4,2] <= 0
 mccormick2[4,3]: - y[4,3] + r[4,3] <= 0
 mccormick2[5,0]: - y[5,0] + r[5,0] <= 0
 mccormick2[5,2]: - y[5,2] + r[5,2] <= 0
 mccormick2[5,3]: - y[5,3] + r[5,3] <= 0
 mccormick3[0,1]: - y[0,1] - u[0,1] + r[0,1] >= -1
 mccormick3[0,2]: - y[0,2] - u[0,2] + r[0,2] >= -1
 mccormick3[0,3]: - y[0,3] - u[0,3] + r[0,3] >= -1
 mccormick3[0,4]: - y[0,4] - u[0,4] + r[0,4] >= -1
 mccormick3[0,5]: - y[0,5] - u[0,5] + r[0,5] >= -1
 mccormick3[1,0]: - y[1,0] - u[1,0] + r[1,0] >= -1
 mccormick3[1,3]: - y[1,3] - u[1,3] + r[1,3] >= -1
 mccormick3[1,4]: - y[1,4] - u[1,4] + r[1,4] >= -1
 mccormick3[2,0]: - y[2,0] - u[2,0] + r[2,0] >= -1
 mccormick3[2,3]: - y[2,3] - u[2,3] + r[2,3] >= -1
 mccormick3[2,4]: - y[2,4] - u[2,4] + r[2,4] >= -1
 mccormick3[2,5]: - y[2,5] - u[2,5] + r[2,5] >= -1
 mccormick3[3,0]: - y[3,0] - u[3,0] + r[3,0] >= -1
 mccormick3[3,1]: - y[3,1] - u[3,1] + r[3,1] >= -1
 mccormick3[3,2]: - y[3,2] - u[3,2] + r[3,2] >= -1
 mccormick3[3,4]: - y[3,4] - u[3,4] + r[3,4] >= -1
 mccormick3[3,5]: - y[3,5] - u[3,5] + r[3,5] >= -1
 mccormick3[4,0]: - y[4,0] - u[4,0] + r[4,0] >= -1
 mccormick3[4,1]: - y[4,1] - u[4,1] + r[4,1] >= -1
 mccormick3[4,2]: - y[4,2] - u[4,2] + r[4,2] >= -1
 mccormick3[4,3]: - y[4,3] - u[4,3] + r[4,3] >= -1
 mccormick3[5,0]: - y[5,0] - u[5,0] + r[5,0] >= -1
 mccormick3[5,2]: - y[5,2] - u[5,2] + r[5,2] >= -1
 mccormick3[5,3]: - y[5,3] - u[5,3] + r[5,3] >= -1
Bounds
Binaries
 y[0,1] y[0,2] y[0,3] y[0,4] y[0,5] y[1,0] y[1,3] y[1,4] y[2,0] y[2,3]
 y[2,4] y[2,5] y[3,0] y[3,1] y[3,2] y[3,4] y[3,5] y[4,0] y[4,1] y[4,2]
 y[4,3] y[5,0] y[5,2] y[5,3] u[0,1] u[0,2] u[0,3] u[0,4] u[0,5] u[1,0]
 u[1,3] u[1,4] u[2,0] u[2,3] u[2,4] u[2,5] u[3,0] u[3,1] u[3,2] u[3,4]
 u[3,5] u[4,0] u[4,1] u[4,2] u[4,3] u[5,0] u[5,2] u[5,3] r[0,1] r[0,2]
 r[0,3] r[0,4] r[0,5] r[1,0] r[1,3] r[1,4] r[2,0] r[2,3] r[2,4] r[2,5]
 r[3,0] r[3,1] r[3,2] r[3,4] r[3,5] r[4,0] r[4,1] r[4,2] r[4,3] r[5,0]
 r[5,2] r[5,3]
End
